NAME : traveling-santa-2018-prime-paths.30643.tour
COMMENT : Length = 30643
COMMENT : Found by LKH [Keld Helsgaun] Sun Jun 12 19:59:54 2022
TYPE : TOUR
DIMENSION : 100
TOUR_SECTION
1
74
34
5
93
49
44
98
29
67
58
42
66
83
7
48
72
20
33
54
73
57
84
30
55
82
52
61
46
64
41
8
17
9
94
25
35
3
80
11
90
95
38
13
14
87
39
43
60
68
16
10
70
81
15
79
69
78
4
26
40
63
18
47
53
100
37
56
6
36
91
51
71
86
24
21
23
2
92
31
76
65
88
96
28
59
77
99
85
19
75
97
45
62
12
32
50
22
27
89
-1
EOF
